Example_I/Log1_cores.log

Gurobi 9.0.2 (linux64) logging started Sun Sep 13 11:48:40 2020

Changed value of parameter LogFile to Log1_cores.log
   Prev:   Default: 
Changed value of parameter Threads to 1
   Prev: 0  Min: 0  Max: 1024  Default: 0
Changed value of parameter LazyConstraints to 1
   Prev: 0  Min: 0  Max: 1  Default: 0
Gurobi Optimizer version 9.0.2 build v9.0.2rc0 (linux64)
Optimize a model with 3661 rows, 41443 columns and 111491 nonzeros
Model fingerprint: 0x67963de8
Variable types: 0 continuous, 41443 integer (41443 binary)
Coefficient statistics:
  Matrix range     [1e+00, 6e+01]
  Objective range  [1e+00, 1e+00]
  Bounds range     [1e+00, 1e+00]
  RHS range        [1e+00, 5e+01]
Presolve removed 446 rows and 1335 columns
Presolve time: 0.14s
Presolved: 3215 rows, 40108 columns, 105015 nonzeros
Variable types: 0 continuous, 40108 integer (40108 binary)

Root relaxation: objective 4.704688e-04, 9790 iterations, 1.42 seconds

    Nodes    |    Current Node    |     Objective Bounds      |     Work
 Expl Unexpl |  Obj  Depth IntInf | Incumbent    BestBd   Gap | It/Node Time

     0     0    0.00047    0  252          -    0.00047      -     -    2s
     0     0    0.00087    0  304          -    0.00087      -     -    3s
     0     0    0.00104    0  289          -    0.00104      -     -    3s
     0     0    0.00119    0  316          -    0.00119      -     -    3s
     0     0    0.00124    0  351          -    0.00124      -     -    3s
     0     0    0.00137    0  349          -    0.00137      -     -    4s
     0     0    0.00138    0  337          -    0.00138      -     -    5s
     0     0    0.00143    0  361          -    0.00143      -     -    5s
     0     0    0.00145    0  373          -    0.00145      -     -    6s
     0     0    0.00204    0  324          -    0.00204      -     -    6s
     0     0    0.00205    0  389          -    0.00205      -     -    7s
     0     0    0.00208    0  370          -    0.00208      -     -    7s
     0     0    0.00211    0  403          -    0.00211      -     -    8s
     0     0    0.00214    0  391          -    0.00214      -     -    9s
     0     0    0.00219    0  392          -    0.00219      -     -    9s
     0     0    0.00223    0  435          -    0.00223      -     -   10s
     0     0    0.00235    0  454          -    0.00235      -     -   11s
     0     0    0.00249    0  427          -    0.00249      -     -   11s
     0     0    0.00366    0  428          -    0.00366      -     -   12s
     0     0    0.00383    0  439          -    0.00383      -     -   12s
     0     0    0.00398    0  421          -    0.00398      -     -   13s
     0     0    0.00414    0  412          -    0.00414      -     -   14s
     0     0    0.00432    0  468          -    0.00432      -     -   14s
     0     0    0.00450    0  446          -    0.00450      -     -   15s
     0     0    0.00457    0  467          -    0.00457      -     -   16s
     0     0    0.00476    0  504          -    0.00476      -     -   16s
     0     0    0.00483    0  451          -    0.00483      -     -   17s
     0     0    0.00489    0  446          -    0.00489      -     -   17s
     0     0    0.00508    0  442          -    0.00508      -     -   18s
     0     0    0.00527    0  488          -    0.00527      -     -   19s
     0     0    0.00531    0  479          -    0.00531      -     -   19s
     0     0    0.00586    0  487          -    0.00586      -     -   20s
     0     0    0.00588    0  499          -    0.00588      -     -   21s
     0     0    0.00598    0  541          -    0.00598      -     -   22s
     0     0    0.00613    0  540          -    0.00613      -     -   23s
     0     0    0.00629    0  510          -    0.00629      -     -   23s
     0     0    0.00653    0  505          -    0.00653      -     -   24s
     0     0    0.00658    0  507          -    0.00658      -     -   25s
     0     0    0.00668    0  497          -    0.00668      -     -   26s
     0     0    0.00673    0  504          -    0.00673      -     -   26s
     0     0    0.00678    0  487          -    0.00678      -     -   27s
     0     0    0.00684    0  506          -    0.00684      -     -   28s
     0     0    0.00790    0  504          -    0.00790      -     -   29s
     0     0    0.00827    0  469          -    0.00827      -     -   30s
     0     0    0.00831    0  511          -    0.00831      -     -   31s
     0     0    0.00835    0  485          -    0.00835      -     -   32s
     0     0    0.00841    0  506          -    0.00841      -     -   33s
     0     0    0.00876    0  492          -    0.00876      -     -   34s
     0     0    0.00891    0  510          -    0.00891      -     -   35s
     0     0    0.00902    0  527          -    0.00902      -     -   36s
     0     0    0.00910    0  501          -    0.00910      -     -   37s
     0     0    0.00914    0  498          -    0.00914      -     -   38s
     0     0    0.00914    0  501          -    0.00914      -     -   39s
     0     0    0.00942    0  512          -    0.00942      -     -   39s
     0     0    0.00969    0  491          -    0.00969      -     -   40s
     0     0    0.00975    0  499          -    0.00975      -     -   40s
     0     0    0.00981    0  524          -    0.00981      -     -   41s
     0     0    0.00991    0  503          -    0.00991      -     -   41s
     0     0    0.00998    0  497          -    0.00998      -     -   42s
     0     0    0.01001    0  502          -    0.01001      -     -   42s
     0     0    0.01012    0  487          -    0.01012      -     -   43s
     0     0    0.01014    0  515          -    0.01014      -     -   43s
     0     0    0.01027    0  545          -    0.01027      -     -   44s
     0     0    0.01032    0  500          -    0.01032      -     -   44s
     0     0    0.01032    0  511          -    0.01032      -     -   45s
     0     0    0.01042    0  527          -    0.01042      -     -   45s
     0     0    0.01045    0  527          -    0.01045      -     -   46s
     0     0    0.01104    0  519          -    0.01104      -     -   46s
     0     0    0.01118    0  525          -    0.01118      -     -   47s
     0     0    0.01136    0  510          -    0.01136      -     -   48s
     0     0    0.01144    0  503          -    0.01144      -     -   48s
     0     0    0.01163    0  545          -    0.01163      -     -   49s
     0     0    0.01177    0  562          -    0.01177      -     -   50s
     0     0    0.01184    0  578          -    0.01184      -     -   51s
     0     0    0.01204    0  533          -    0.01204      -     -   51s
     0     0    0.01206    0  533          -    0.01206      -     -   52s
     0     0    0.01210    0  552          -    0.01210      -     -   53s
     0     0    0.01223    0  543          -    0.01223      -     -   53s
     0     0    0.01242    0  522          -    0.01242      -     -   54s
     0     0    0.01261    0  531          -    0.01261      -     -   55s
     0     0    0.01264    0  514          -    0.01264      -     -   55s
     0     0    0.01264    0  547          -    0.01264      -     -   56s
     0     0    0.01264    0  442          -    0.01264      -     -   57s
     0     2    0.01287    0  430          -    0.01287      -     -   63s
    51    51    1.00000   49  350          -    0.01721      -   285   65s
   199   199    1.00000  169  206          -    0.01721      -   231   70s
   670   668    1.00000  563   17          -    0.01721      -   125   75s
H  691     1                       1.0000000    0.01721  98.3%   122   75s

Cutting planes:
  Cover: 192
  Clique: 5
  MIR: 254
  StrongCG: 28
  RLT: 44

Explored 692 nodes (324288 simplex iterations) in 75.13 seconds
Thread count was 1 (of 48 available processors)

Solution count 1: 1 

Optimal solution found (tolerance 1.00e-04)
Best objective 1.000000000000e+00, best bound 1.000000000000e+00, gap 0.0000%
